target_sources(GLPK
  PRIVATE
    avl.c
    avl.h
    bignum.c
    bignum.h
    dimacs.c
    dimacs.h
    dmp.c
    dmp.h
    ffalg.c
    ffalg.h
    fp2rat.c
    fvs.c
    fvs.h
    gcd.c
    hbm.c
    hbm.h
    jd.c
    jd.h
    keller.c
    keller.h
    ks.c
    ks.h
    mc13d.c
    mc13d.h
    mc21a.c
    mc21a.h
    misc.h
    mt1.c
    mt1.f
    mt1.h
    mygmp.c
    mygmp.h
    okalg.c
    okalg.h
    qmd.c
    qmd.h
    relax4.c
    relax4.h
    rgr.c
    rgr.h
    rng1.c
    rng.c
    rng.h
    round2n.c
    spm.c
    spm.h
    str2int.c
    str2num.c
    strspx.c
    strtrim.c
    triang.c
    triang.h
    wclique1.c
    wclique1.h
    wclique.c
    wclique.h
)

target_sources(GLPSOL
    PRIVATE
        avl.c
        avl.h
        bignum.c
        bignum.h
        dimacs.c
        dimacs.h
        dmp.c
        dmp.h
        ffalg.c
        ffalg.h
        fp2rat.c
        fvs.c
        fvs.h
        gcd.c
        hbm.c
        hbm.h
        jd.c
        jd.h
        keller.c
        keller.h
        ks.c
        ks.h
        mc13d.c
        mc13d.h
        mc21a.c
        mc21a.h
        misc.h
        mt1.c
        mt1.f
        mt1.h
        mygmp.c
        mygmp.h
        okalg.c
        okalg.h
        qmd.c
        qmd.h
        relax4.c
        relax4.h
        rgr.c
        rgr.h
        rng1.c
        rng.c
        rng.h
        round2n.c
        spm.c
        spm.h
        str2int.c
        str2num.c
        strspx.c
        strtrim.c
        triang.c
        triang.h
        wclique1.c
        wclique1.h
        wclique.c
        wclique.h
)